5 5
5 5 3 10 5 3 2 13 4 2 1 12 4 1 11 4 16 2 6 3 9 3 5 5 3 6 1 8 3 5 6 1 7 4 11 4 5 11 4 19 2 4 1 7
6 1 2 16 5 3 12 4 4 5 8 1 18 2 8 4 3 8 5 20 1 16 2 4 3 3 15 5 5 2 20 4 4 2 3 4 2 5 5 18 5 2 4 5 18 4 6 1 14 3 12
8 4 5 14 2 5 4 6 1 2 5 2 17 1 2 4 7 3 4 5 10 2 3 6 2 17 2 2 17 1 9 3 5 18 4 12 3 13 1 2 17 1 2 8 1 2 7
5 2 4 13 3 2 4 2 7 4 6 1 6 3 12 4 3 14 5 3 2 2 1 3 2 2 6 3 8 4 4 8 1 6 5 7 2 11
5 3 3 13 2 16 1 15 5 1 14 5 12 2 9 4 11 3 18 4 2 14 3 18 1 12 4 15 4 3 14 4 17 5 12 2 9 3 4 15 2 12 1 14